33 2439
1910 2430 0
1820 2400 0
1260 2490 20
1440 2800 20
1690 2810 20
2070 2820 20
1250 2660 20
2180 2730 20
1250 2260 20
2250 1700 30
1990 1500 30
1490 1510 30
1150 1860 30
1240 2980 30
1780 2810 30
910 2980 40
1000 3260 40
1390 3310 40
1995 1030 40
1520 800 40
1470 3120 50
740 3650 50
2100 2550 50
1800 2530 10
1950 2470 10
2140 2180 10
1600 2140 10
1865 2620 10
1790 2890 10
1430 1990 20
1700 1900 20
1080 2100 20
1570 2370 10
